16626
1 0 1 0 0 1 0 1 1 0 0 1 0 0 1 0 0 1 0 0 1 0 1 0 1 1 0 0 0 0 
20 11 8 2 20 5 17 24 14 17 22 8 8 20 7 14 14 17 25 11 2 0 5 17 5 8 2 24 5 22 5 25 2 25 20 20 24 24 0 14 0 14 24 2 24 14 0 20 11 8 5 2 14 5 8 20 17 11 11 14 0 5 20 11 11 11 22 0 22 22 8 20 11 17 24 8 22 20 2 24 20 7 8 17 17 17 17 7 20 5 2 24 17 11 17 5 2 7 25 14 14 17 17 25 2 25 7 11 14 14 14 2 2 11 11 25 24 24 24 24 5 8 25 20 8 0 5 22 0 25 0 11 24 25 8 14 7 5 20 17 0 8 20 14 8 25 25 5 2 5 
